
c--------------------------------------------------------------
c	Ferhat Erata
c	CPSC 454/554
c	Tue Nov 26 2019	22:50:32
c--------------------------------------------------------------
c 5 40
c 1 -1 -4 1 
c 3 2 -5 
c 4 1 3 3 
c -1 -4 4 -5 
c -2 
c 2 -4 4 -1 
c -3 -3 -2 
c 4 5 3 
c -5 2 -1 -1 
c -5 1 -4 3 1 
c 2 -4 
c -1 -1 -4 -4 -2 
c 1 
c 3 -1 3 -3 
c -4 -2 5 
c 1 3 3 3 
c -4 
c -5 -1 
c 3 -1 -5 -4 
c 2 
s UNSATISFIABLE
c--------------------------------------------------------------
c statistics of ../../bench1/unsat/5-40.cnf:
c [ mem_used: 180, conflicts: 0, max_lemmas: 2000 ]
c--------------------------------------------------------------
c	Normal termination.
